p cnf 227 523
c x0 -> 67
c x1 -> 68
c x2 -> 73
c x3 -> 127
c x4 -> 128
c x5 -> 129
c x6 -> 158
c x7 -> 181
c x8 -> 182
2 3 -1 0
-2 -3 -1 0
2 -3 1 0
-2 3 1 0
4 -2 0
5 -2 0
-4 -5 2 0
6 3 0
7 3 0
-6 -7 -3 0
8 -4 0
9 -4 0
-8 -9 4 0
10 -5 0
11 -5 0
-10 -11 5 0
12 -6 0
13 -6 0
-12 -13 6 0
14 -7 0
15 -7 0
-14 -15 7 0
16 8 0
-16 -8 0
17 -9 0
18 -9 0
-17 -18 9 0
19 10 0
-19 -10 0
20 11 0
-20 -11 0
21 12 0
-21 -12 0
22 13 0
23 13 0
-22 -23 -13 0
24 14 0
-24 -14 0
25 15 0
-25 -15 0
26 -16 0
27 -16 0
-26 -27 16 0
28 17 0
-28 -17 0
29 -18 0
30 -18 0
-29 -30 18 0
31 -19 0
32 -19 0
-31 -32 19 0
33 -20 0
34 -20 0
-33 -34 20 0
35 -21 0
36 -21 0
-35 -36 21 0
37 22 0
-37 -22 0
38 -23 0
39 -23 0
-38 -39 23 0
40 -24 0
41 -24 0
-40 -41 24 0
42 -25 0
43 -25 0
-42 -43 25 0
44 26 0
-44 -26 0
45 -27 0
46 -27 0
-45 -46 27 0
47 -28 0
48 -28 0
-47 -48 28 0
49 29 0
-49 -29 0
50 30 0
-50 -30 0
45 31 0
-45 -31 0
51 32 0
-51 -32 0
47 33 0
-47 -33 0
52 34 0
-52 -34 0
53 35 0
-53 -35 0
54 -36 0
55 -36 0
-54 -55 36 0
56 -37 0
57 -37 0
-56 -57 37 0
58 38 0
-58 -38 0
59 39 0
-59 -39 0
54 40 0
-54 -40 0
60 41 0
-60 -41 0
56 42 0
-56 -42 0
61 43 0
-61 -43 0
62 -44 0
63 -44 0
-62 -63 44 0
64 -45 0
65 -45 0
-64 -65 45 0
66 46 0
-66 -46 0
67 -47 0
68 -47 0
-67 -68 47 0
69 -48 0
70 -48 0
-69 -70 48 0
71 -49 0
72 -49 0
-71 -72 49 0
73 -50 0
74 -50 0
-73 -74 50 0
75 -51 0
76 -51 0
-75 -76 51 0
77 -52 0
78 -52 0
-77 -78 52 0
79 -53 0
80 -53 0
-79 -80 53 0
81 -54 0
82 -54 0
-81 -82 54 0
83 55 0
-83 -55 0
67 -56 0
68 -56 0
-67 -68 56 0
86 -57 0
87 -57 0
-86 -87 57 0
88 -58 0
89 -58 0
-88 -89 58 0
73 -59 0
91 -59 0
-73 -91 59 0
92 -60 0
93 -60 0
-92 -93 60 0
94 61 0
95 61 0
-94 -95 -61 0
96 62 0
-96 -62 0
97 63 0
-97 -63 0
67 64 0
-67 -64 0
68 65 0
-68 -65 0
73 -66 0
98 -66 0
-73 -98 66 0
99 69 0
-99 -69 0
100 70 0
-100 -70 0
73 71 0
-73 -71 0
96 -72 0
101 -72 0
-96 -101 72 0
102 -74 0
103 -74 0
-102 -103 74 0
74 75 0
-74 -75 0
104 76 0
-104 -76 0
72 77 0
-72 -77 0
105 78 0
-105 -78 0
106 79 0
-106 -79 0
107 80 0
-107 -80 0
67 81 0
-67 -81 0
68 82 0
-68 -82 0
73 -83 0
108 -83 0
-73 -108 83 0
109 86 0
-109 -86 0
110 87 0
-110 -87 0
73 88 0
-73 -88 0
106 -89 0
111 -89 0
-106 -111 89 0
112 -91 0
113 -91 0
-112 -113 91 0
91 92 0
-91 -92 0
114 93 0
-114 -93 0
89 94 0
-89 -94 0
115 95 0
-115 -95 0
116 -96 0
117 -96 0
-116 -117 96 0
118 -97 0
119 -97 0
-118 -119 97 0
120 -98 0
121 -98 0
-120 -121 98 0
71 -99 0
122 -99 0
-71 -122 99 0
123 -100 0
124 -100 0
-123 -124 100 0
125 -101 0
126 -101 0
-125 -126 101 0
127 -102 0
128 -102 0
-127 -128 102 0
129 -103 0
130 -103 0
-129 -130 103 0
73 -104 0
131 -104 0
-73 -131 104 0
71 -105 0
132 -105 0
-71 -132 105 0
133 -106 0
134 -106 0
-133 -134 106 0
135 -107 0
136 -107 0
-135 -136 107 0
137 -108 0
138 -108 0
-137 -138 108 0
88 -109 0
139 -109 0
-88 -139 109 0
140 -110 0
141 -110 0
-140 -141 110 0
142 -111 0
143 -111 0
-142 -143 111 0
127 -112 0
128 -112 0
-127 -128 112 0
129 -113 0
147 -113 0
-129 -147 113 0
73 -114 0
148 -114 0
-73 -148 114 0
88 -115 0
149 -115 0
-88 -149 115 0
129 116 0
-129 -116 0
150 -117 0
151 -117 0
-150 -151 117 0
152 118 0
-152 -118 0
153 119 0
-153 -119 0
154 120 0
-154 -120 0
155 121 0
-155 -121 0
131 122 0
-131 -122 0
156 123 0
-156 -123 0
157 124 0
-157 -124 0
127 125 0
-127 -125 0
128 126 0
-128 -126 0
158 -130 0
159 -130 0
-158 -159 130 0
156 -131 0
160 -131 0
-156 -160 131 0
98 132 0
-98 -132 0
129 133 0
-129 -133 0
161 -134 0
162 -134 0
-161 -162 134 0
163 135 0
-163 -135 0
164 136 0
-164 -136 0
165 137 0
-165 -137 0
166 138 0
-166 -138 0
148 139 0
-148 -139 0
167 140 0
-167 -140 0
168 141 0
-168 -141 0
127 142 0
-127 -142 0
128 143 0
-128 -143 0
158 -147 0
170 -147 0
-158 -170 147 0
167 -148 0
171 -148 0
-167 -171 148 0
108 149 0
-108 -149 0
158 150 0
-158 -150 0
172 -151 0
173 -151 0
-172 -173 151 0
128 -152 0
174 -152 0
-128 -174 152 0
175 -153 0
176 -153 0
-175 -176 153 0
177 -154 0
101 -154 0
-177 -101 154 0
96 -155 0
178 -155 0
-96 -178 155 0
179 -156 0
180 -156 0
-179 -180 156 0
174 -157 0
160 -157 0
-174 -160 157 0
181 -159 0
182 -159 0
-181 -182 159 0
183 160 0
-183 -160 0
158 161 0
-158 -161 0
184 -162 0
185 -162 0
-184 -185 162 0
128 -163 0
186 -163 0
-128 -186 163 0
187 -164 0
188 -164 0
-187 -188 164 0
189 -165 0
111 -165 0
-189 -111 165 0
106 -166 0
190 -166 0
-106 -190 166 0
191 -167 0
192 -167 0
-191 -192 167 0
186 -168 0
171 -168 0
-186 -171 168 0
181 -170 0
182 -170 0
-181 -182 170 0
195 171 0
-195 -171 0
181 172 0
-181 -172 0
182 173 0
-182 -173 0
177 174 0
-177 -174 0
196 175 0
-196 -175 0
197 176 0
-197 -176 0
198 -177 0
199 -177 0
-198 -199 177 0
102 178 0
-102 -178 0
200 -179 0
201 -179 0
-200 -201 179 0
101 180 0
-101 -180 0
178 -183 0
202 -183 0
-178 -202 183 0
181 184 0
-181 -184 0
182 185 0
-182 -185 0
189 186 0
-189 -186 0
203 187 0
-203 -187 0
204 188 0
-204 -188 0
205 -189 0
206 -189 0
-205 -206 189 0
112 190 0
-112 -190 0
207 -191 0
208 -191 0
-207 -208 191 0
111 192 0
-111 -192 0
190 -195 0
209 -195 0
-190 -209 195 0
126 -196 0
177 -196 0
-126 -177 196 0
125 -197 0
210 -197 0
-125 -210 197 0
211 -198 0
212 -198 0
-211 -212 198 0
213 199 0
-213 -199 0
198 200 0
-198 -200 0
214 201 0
-214 -201 0
103 202 0
-103 -202 0
143 -203 0
189 -203 0
-143 -189 203 0
142 -204 0
215 -204 0
-142 -215 204 0
216 -205 0
217 -205 0
-216 -217 205 0
218 206 0
-218 -206 0
205 207 0
-205 -207 0
219 208 0
-219 -208 0
113 209 0
-113 -209 0
179 210 0
-179 -210 0
159 211 0
-159 -211 0
220 212 0
-220 -212 0
129 -213 0
221 -213 0
-129 -221 213 0
116 -214 0
222 -214 0
-116 -222 214 0
191 215 0
-191 -215 0
170 216 0
-170 -216 0
223 217 0
-223 -217 0
129 -218 0
224 -218 0
-129 -224 218 0
133 -219 0
225 -219 0
-133 -225 219 0
158 -220 0
226 -220 0
-158 -226 220 0
117 221 0
-117 -221 0
130 222 0
-130 -222 0
158 -223 0
227 -223 0
-158 -227 223 0
134 224 0
-134 -224 0
147 225 0
-147 -225 0
151 226 0
-151 -226 0
162 227 0
-162 -227 0
1 0
